set Nodes :=  S A B C D E F G H I J T;

param capacity default 0 :=
S A 10
S C 2
S E 4
S D 5
A B 4
A C 2
A G 2
B H 3
C E 5
C G 8
D E 3
D J 2
E G 7
E F 2
F I 10
F T 6
G F 2
G H 2
H T 9
I T 7
J F 1
J I 5

T S 100;
